NAME          COPTPROB
OBJSENSE
  MIN
ROWS
 N  __OBJ___
 L  C0      
 L  C1      
 L  C2      
 L  C3      
 L  C6      
 L  C7      
 L  C8      
 L  C10     
 L  C12     
 L  C14     
 L  C15     
 L  C16     
 L  C18     
 L  C19     
 L  C20     
 L  C21     
 L  C22     
 L  C23     
 L  C24     
 L  C26     
 L  C27     
 L  C28     
 L  C31     
 L  C32     
 L  C38     
 L  C41     
 L  C42     
 L  C45     
 L  C46     
 L  C48     
 L  C50     
 L  C52     
 L  C53     
 L  C56     
 L  C59     
 L  C61     
 L  C62     
 L  C65     
 L  C66     
 L  C67     
 L  C68     
 L  C69     
 L  C71     
 L  C72     
 L  C75     
 L  C77     
 L  C78     
 L  C81     
 L  C84     
 L  C85     
 L  C87     
 L  C88     
 L  C89     
 L  C93     
 L  C96     
 L  C97     
 L  C99     
 L  C107    
 L  C110    
 L  C111    
 L  C113    
 L  C119    
 L  C121    
 L  C122    
 L  C123    
 L  C126    
 L  C128    
 L  C133    
 L  C136    
 L  C137    
 L  C138    
 L  C140    
 L  C141    
 L  C145    
 L  C146    
 L  C148    
 L  C150    
 L  C152    
 L  C155    
 L  C157    
 L  C158    
 L  C161    
 L  C162    
 L  C164    
 L  C165    
 L  C167    
 L  C168    
 L  C169    
 L  C174    
 L  C175    
 L  C179    
 L  C181    
 L  C182    
 L  C183    
 L  C185    
 L  C186    
 L  C188    
 L  C190    
 L  C191    
 L  C192    
 L  C193    
 L  C194    
 L  C196    
 L  C197    
 L  C201    
 L  C202    
 L  C208    
 L  C209    
 L  C211    
 L  C212    
 L  C213    
 L  C215    
 L  C218    
 L  C220    
 L  C221    
 L  C222    
 L  C226    
 L  C227    
 L  C228    
 L  C229    
 L  C231    
 L  C232    
 L  C234    
 L  C235    
 L  C241    
 L  C242    
 L  C243    
 L  C247    
 L  C248    
 L  C249    
 L  C252    
 L  C253    
 L  C256    
 L  C258    
 L  C260    
 L  C261    
 L  C262    
 L  C264    
 L  C266    
 L  C268    
 L  C269    
 L  C272    
 L  C273    
 L  C274    
 L  C277    
 L  C279    
 L  C282    
 L  C283    
 L  C286    
 L  C287    
 L  C288    
 L  C290    
 L  C293    
 L  C294    
 L  C298    
 L  C299    
 L  C302    
 L  C303    
 L  C304    
 L  C305    
 L  C306    
 L  C307    
 L  C308    
 L  C309    
 L  C310    
 L  C312    
 L  C314    
 L  C316    
 L  C317    
 L  C318    
 L  C319    
 L  C321    
 L  C327    
 L  C328    
 L  C329    
 L  C330    
 L  C332    
 L  C334    
 L  C336    
 L  C339    
 L  C342    
 L  C344    
 L  C345    
 L  C347    
 L  C348    
 L  C349    
 L  C351    
 L  C352    
 L  C353    
 L  C356    
 L  C362    
 L  C364    
 L  C366    
 L  C371    
 L  C372    
 L  C374    
 L  C375    
 L  C376    
 L  C378    
 L  C380    
 L  C381    
 L  C382    
 L  C386    
 L  C387    
 L  C390    
 L  C392    
 L  C393    
COLUMNS
    MARKER    'MARKER'                 'INTORG'
    x1        __OBJ___  948
    x1        C7        -1
    x1        C78       -1
    x1        C87       -1
    x1        C96       -1
    x1        C247      -1
    x1        C299      -1
    x1        C362      -1
    x3        __OBJ___  755
    x3        C21       -1
    x3        C140      -1
    x3        C150      -1
    x3        C221      -1
    x3        C242      -1
    x3        C286      -1
    x4        __OBJ___  541
    x4        C10       -1
    x4        C50       -1
    x4        C61       -1
    x4        C71       -1
    x4        C133      -1
    x4        C260      -1
    x5        __OBJ___  441
    x5        C128      -1
    x5        C261      -1
    x5        C274      -1
    x7        __OBJ___  245
    x7        C122      -1
    x7        C232      -1
    x7        C235      -1
    x8        __OBJ___  435
    x8        C2        -1
    x8        C32       -1
    x8        C304      -1
    x8        C307      -1
    x8        C330      -1
    x10       __OBJ___  588
    x10       C6        -1
    x10       C336      -1
    x13       __OBJ___  585
    x13       C26       -1
    x13       C38       -1
    x13       C111      -1
    x13       C344      -1
    x13       C351      -1
    x15       __OBJ___  737
    x15       C69       -1
    x15       C164      -1
    x15       C193      -1
    x15       C382      -1
    x18       __OBJ___  692
    x18       C45       -1
    x18       C81       -1
    x18       C161      -1
    x18       C226      -1
    x21       __OBJ___  934
    x21       C15       -1
    x21       C110      -1
    x21       C208      -1
    x21       C213      -1
    x21       C218      -1
    x21       C258      -1
    x21       C303      -1
    x23       __OBJ___  560
    x23       C3        -1
    x23       C387      -1
    x24       __OBJ___  481
    x24       C41       -1
    x24       C52       -1
    x24       C175      -1
    x24       C179      -1
    x24       C390      -1
    x25       __OBJ___  53
    x25       C253      -1
    x25       C290      -1
    x25       C318      -1
    x30       __OBJ___  158
    x30       C99       -1
    x30       C155      -1
    x30       C215      -1
    x31       __OBJ___  306
    x31       C18       -1
    x31       C113      -1
    x31       C321      -1
    x31       C352      -1
    x31       C372      -1
    x32       __OBJ___  956
    x32       C56       -1
    x32       C72       -1
    x32       C75       -1
    x32       C186      -1
    x36       __OBJ___  361
    x36       C123      -1
    x36       C145      -1
    x37       __OBJ___  37
    x37       C157      -1
    x37       C228      -1
    x38       __OBJ___  210
    x38       C12       -1
    x38       C249      -1
    x39       __OBJ___  248
    x39       C256      -1
    x39       C273      -1
    x39       C310      -1
    x43       __OBJ___  181
    x43       C20       -1
    x43       C97       -1
    x44       __OBJ___  40
    x44       C167      -1
    x44       C316      -1
    x47       __OBJ___  995
    x47       C288      -1
    x47       C328      -1
    x48       __OBJ___  289
    x48       C88       -1
    x48       C309      -1
    x48       C342      -1
    x49       __OBJ___  92
    x49       C1        -1
    x49       C248      -1
    x50       __OBJ___  675
    x50       C48       -1
    x50       C141      -1
    x50       C268      -1
    x50       C349      -1
    x50       C375      -1
    x52       __OBJ___  203
    x52       C89       -1
    x52       C392      -1
    x53       __OBJ___  905
    x53       C59       -1
    x53       C62       -1
    x53       C181      -1
    x53       C234      -1
    x54       __OBJ___  916
    x54       C279      -1
    x54       C298      -1
    x54       C366      -1
    x56       __OBJ___  386
    x56       C0        -1
    x56       C93       -1
    x56       C121      -1
    x56       C197      -1
    x58       __OBJ___  688
    x58       C202      -1
    x58       C209      -1
    x58       C308      -1
    x58       C378      -1
    x59       __OBJ___  821
    x59       C16       -1
    x59       C67       -1
    x59       C85       -1
    x59       C136      -1
    x59       C146      -1
    x59       C148      -1
    x61       __OBJ___  314
    x61       C126      -1
    x61       C220      -1
    x61       C264      -1
    x61       C356      -1
    x63       __OBJ___  174
    x63       C22       -1
    x63       C168      -1
    x63       C293      -1
    x63       C380      -1
    x68       __OBJ___  623
    x68       C42       -1
    x68       C194      -1
    x69       __OBJ___  425
    x69       C53       -1
    x69       C277      -1
    x69       C312      -1
    x69       C348      -1
    x72       __OBJ___  306
    x72       C8        -1
    x72       C272      -1
    x72       C364      -1
    x74       __OBJ___  581
    x74       C14       -1
    x74       C23       -1
    x75       __OBJ___  19
    x75       C77       -1
    x75       C84       -1
    x77       __OBJ___  859
    x77       C66       -1
    x77       C201      -1
    x77       C283      -1
    x78       __OBJ___  181
    x78       C27       -1
    x78       C386      -1
    x79       __OBJ___  54
    x79       C107      -1
    x79       C174      -1
    x79       C212      -1
    x79       C317      -1
    x79       C329      -1
    x86       __OBJ___  977
    x86       C68       -1
    x86       C138      -1
    x86       C190      -1
    x88       __OBJ___  624
    x88       C137      -1
    x88       C182      -1
    x88       C262      -1
    x88       C294      -1
    x89       __OBJ___  362
    x89       C65       -1
    x89       C191      -1
    x90       __OBJ___  60
    x90       C314      -1
    x90       C334      -1
    x94       __OBJ___  214
    x94       C19       -1
    x94       C227      -1
    x94       C305      -1
    x94       C371      -1
    x94       C374      -1
    x95       __OBJ___  858
    x95       C24       -1
    x95       C31       -1
    x95       C183      -1
    x98       __OBJ___  670
    x98       C165      -1
    x98       C222      -1
    x98       C269      -1
    x98       C282      -1
    x98       C302      -1
    x98       C306      -1
    x99       __OBJ___  216
    x99       C46       -1
    x99       C162      -1
    x103      __OBJ___  718
    x103      C174      -1
    x103      C234      -1
    x107      __OBJ___  492
    x107      C15       -1
    x107      C128      -1
    x107      C220      -1
    x107      C290      -1
    x108      __OBJ___  96
    x108      C202      -1
    x108      C374      -1
    x110      __OBJ___  125
    x110      C15       -1
    x110      C21       -1
    x110      C84       -1
    x110      C169      -1
    x114      __OBJ___  90
    x114      C158      -1
    x114      C193      -1
    x114      C345      -1
    x114      C375      -1
    x115      __OBJ___  600
    x115      C53       -1
    x115      C122      -1
    x115      C336      -1
    x115      C375      -1
    x116      __OBJ___  400
    x116      C66       -1
    x116      C93       -1
    x116      C309      -1
    x116      C332      -1
    x118      __OBJ___  493
    x118      C286      -1
    x118      C381      -1
    x119      __OBJ___  330
    x119      C14       -1
    x119      C167      -1
    x119      C209      -1
    x121      __OBJ___  610
    x121      C8        -1
    x121      C14       -1
    x121      C141      -1
    x121      C242      -1
    x122      __OBJ___  886
    x122      C23       -1
    x122      C122      -1
    x122      C192      -1
    x123      __OBJ___  658
    x123      C110      -1
    x123      C208      -1
    x123      C247      -1
    x123      C386      -1
    x124      __OBJ___  893
    x124      C31       -1
    x124      C168      -1
    x124      C229      -1
    x126      __OBJ___  438
    x126      C113      -1
    x126      C304      -1
    x127      __OBJ___  823
    x127      C38       -1
    x127      C61       -1
    x127      C93       -1
    x127      C371      -1
    x129      __OBJ___  945
    x129      C28       -1
    x129      C274      -1
    x129      C304      -1
    x129      C392      -1
    x130      __OBJ___  981
    x130      C68       -1
    x130      C229      -1
    x130      C232      -1
    x130      C266      -1
    x133      __OBJ___  255
    x133      C179      -1
    x133      C321      -1
    x133      C352      -1
    x134      __OBJ___  262
    x134      C157      -1
    x134      C192      -1
    x134      C374      -1
    x135      __OBJ___  664
    x135      C111      -1
    x135      C344      -1
    x135      C386      -1
    x136      __OBJ___  382
    x136      C24       -1
    x136      C50       -1
    x136      C168      -1
    x137      __OBJ___  320
    x137      C84       -1
    x137      C113      -1
    x137      C196      -1
    x137      C231      -1
    x139      __OBJ___  626
    x139      C20       -1
    x139      C99       -1
    x139      C248      -1
    x139      C299      -1
    x140      __OBJ___  429
    x140      C161      -1
    x140      C186      -1
    x140      C197      -1
    x140      C253      -1
    x140      C381      -1
    x142      __OBJ___  510
    x142      C24       -1
    x142      C107      -1
    x142      C378      -1
    x143      __OBJ___  621
    x143      C96       -1
    x143      C286      -1
    x143      C308      -1
    x145      __OBJ___  503
    x145      C272      -1
    x145      C349      -1
    x145      C356      -1
    x146      __OBJ___  184
    x146      C38       -1
    x146      C248      -1
    x146      C327      -1
    x146      C386      -1
    x147      __OBJ___  553
    x147      C7        -1
    x147      C119      -1
    x147      C213      -1
    x147      C269      -1
    x148      __OBJ___  136
    x148      C75       -1
    x148      C121      -1
    x149      __OBJ___  670
    x149      C14       -1
    x149      C344      -1
    x149      C351      -1
    x150      __OBJ___  389
    x150      C77       -1
    x150      C87       -1
    x150      C193      -1
    x150      C272      -1
    x150      C283      -1
    x150      C321      -1
    x153      __OBJ___  11
    x153      C119      -1
    x161      __OBJ___  559
    x161      C140      -1
    x161      C308      -1
    x163      __OBJ___  223
    x163      C145      -1
    x163      C261      -1
    x163      C390      -1
    x168      __OBJ___  259
    x168      C14       -1
    x168      C157      -1
    x168      C305      -1
    x170      __OBJ___  284
    x170      C27       -1
    x170      C262      -1
    x171      __OBJ___  13
    x171      C330      -1
    x171      C393      -1
    x172      __OBJ___  889
    x172      C6        -1
    x172      C81       -1
    x172      C227      -1
    x176      __OBJ___  157
    x176      C221      -1
    x176      C226      -1
    x177      __OBJ___  433
    x177      C12       -1
    x177      C372      -1
    x177      C390      -1
    x180      __OBJ___  149
    x180      C20       -1
    x180      C133      -1
    x180      C190      -1
    x180      C243      -1
    x180      C282      -1
    x181      __OBJ___  399
    x181      C52       -1
    x181      C93       -1
    x181      C339      -1
    x183      __OBJ___  396
    x183      C65       -1
    x183      C69       -1
    x183      C202      -1
    x183      C261      -1
    x183      C317      -1
    x184      __OBJ___  162
    x184      C1        -1
    x184      C319      -1
    x184      C380      -1
    x185      __OBJ___  293
    x185      C18       -1
    x185      C235      -1
    x187      __OBJ___  892
    x187      C107      -1
    x187      C140      -1
    x187      C191      -1
    x188      __OBJ___  356
    x188      C53       -1
    x188      C211      -1
    x194      __OBJ___  836
    x194      C227      -1
    x194      C294      -1
    x194      C298      -1
    x195      __OBJ___  49
    x195      C56       -1
    x195      C141      -1
    x195      C185      -1
    x195      C303      -1
    x195      C306      -1
    x196      __OBJ___  183
    x196      C10       -1
    x196      C380      -1
    x197      __OBJ___  84
    x197      C87       -1
    x197      C185      -1
    x197      C248      -1
    x200      __OBJ___  569
    x200      C15       -1
    x200      C194      -1
    x201      __OBJ___  826
    x201      C1        -1
    x201      C209      -1
    x201      C294      -1
    x204      __OBJ___  56
    x204      C148      -1
    x204      C387      -1
    x206      __OBJ___  109
    x206      C266      -1
    x207      __OBJ___  678
    x207      C78       -1
    x207      C138      -1
    x208      __OBJ___  58
    x208      C165      -1
    x208      C382      -1
    x209      __OBJ___  212
    x209      C78       -1
    x209      C136      -1
    x210      __OBJ___  597
    x210      C272      -1
    x210      C274      -1
    x214      __OBJ___  95
    x214      C22       -1
    x215      __OBJ___  131
    x215      C26       -1
    x217      __OBJ___  195
    x217      C272      -1
    x217      C345      -1
    x220      __OBJ___  172
    x220      C293      -1
    x221      __OBJ___  172
    x221      C141      -1
    x221      C304      -1
    x222      __OBJ___  143
    x222      C10       -1
    x222      C202      -1
    x223      __OBJ___  739
    x223      C152      -1
    x223      C234      -1
    x223      C258      -1
    x223      C319      -1
    x227      __OBJ___  211
    x227      C16       -1
    x227      C89       -1
    x227      C309      -1
    x228      __OBJ___  516
    x228      C3        -1
    x228      C14       -1
    x228      C68       -1
    x228      C258      -1
    x229      __OBJ___  394
    x229      C16       -1
    x229      C119      -1
    x229      C186      -1
    x230      __OBJ___  286
    x230      C0        -1
    x230      C15       -1
    x230      C107      -1
    x230      C264      -1
    x230      C376      -1
    x232      __OBJ___  585
    x232      C193      -1
    x232      C269      -1
    x233      __OBJ___  32
    x233      C181      -1
    x233      C334      -1
    x234      __OBJ___  322
    x234      C68       -1
    x234      C290      -1
    x234      C321      -1
    x235      __OBJ___  619
    x235      C227      -1
    x235      C349      -1
    x236      __OBJ___  312
    x236      C183      -1
    x236      C212      -1
    x236      C393      -1
    x239      __OBJ___  571
    x239      C137      -1
    x239      C183      -1
    x239      C329      -1
    x239      C348      -1
    x241      __OBJ___  336
    x241      C141      -1
    x241      C197      -1
    x241      C228      -1
    x241      C235      -1
    x241      C290      -1
    x246      __OBJ___  262
    x246      C264      -1
    x246      C287      -1
    x248      __OBJ___  317
    x248      C152      -1
    x248      C242      -1
    x250      __OBJ___  31
    x250      C15       -1
    x250      C336      -1
    x250      C345      -1
    x251      __OBJ___  444
    x251      C215      -1
    x251      C286      -1
    x253      __OBJ___  731
    x253      C126      -1
    x253      C279      -1
    x253      C342      -1
    x254      __OBJ___  785
    x254      C138      -1
    x254      C164      -1
    x254      C299      -1
    x254      C329      -1
    x255      __OBJ___  196
    x255      C188      -1
    x255      C253      -1
    x255      C260      -1
    x255      C371      -1
    x256      __OBJ___  940
    x256      C201      -1
    x256      C247      -1
    x256      C266      -1
    x256      C277      -1
    x256      C282      -1
    x257      __OBJ___  192
    x257      C145      -1
    x257      C353      -1
    x259      __OBJ___  280
    x259      C123      -1
    x259      C220      -1
    x259      C316      -1
    x260      __OBJ___  292
    x260      C133      -1
    x260      C319      -1
    x260      C386      -1
    x262      __OBJ___  552
    x262      C22       -1
    x262      C69       -1
    x262      C133      -1
    x262      C262      -1
    x268      __OBJ___  870
    x268      C185      -1
    x268      C201      -1
    x268      C212      -1
    x268      C252      -1
    x268      C283      -1
    x268      C347      -1
    x268      C375      -1
    x270      __OBJ___  746
    x270      C229      -1
    x270      C274      -1
    x272      __OBJ___  657
    x272      C21       -1
    x272      C213      -1
    x272      C321      -1
    x275      __OBJ___  315
    x275      C12       -1
    x275      C81       -1
    x276      __OBJ___  625
    x276      C56       -1
    x276      C299      -1
    x277      __OBJ___  44
    x277      C211      -1
    x277      C218      -1
    x277      C327      -1
    x278      __OBJ___  908
    x278      C67       -1
    x278      C164      -1
    x278      C235      -1
    x281      __OBJ___  289
    x281      C148      -1
    x281      C228      -1
    x281      C264      -1
    x281      C351      -1
    x282      __OBJ___  804
    x282      C46       -1
    x282      C77       -1
    x282      C85       -1
    x282      C305      -1
    x282      C318      -1
    x284      __OBJ___  413
    x284      C119      -1
    x284      C220      -1
    x284      C352      -1
    x286      __OBJ___  102
    x286      C197      -1
    x286      C306      -1
    x287      __OBJ___  595
    x287      C175      -1
    x287      C243      -1
    x288      __OBJ___  669
    x288      C227      -1
    x288      C318      -1
    x288      C378      -1
    x292      __OBJ___  328
    x292      C19       -1
    x292      C107      -1
    x292      C231      -1
    x293      __OBJ___  403
    x293      C12       -1
    x293      C38       -1
    x293      C119      -1
    x293      C372      -1
    x294      __OBJ___  96
    x294      C20       -1
    x294      C59       -1
    x295      __OBJ___  337
    x295      C28       -1
    x295      C169      -1
    x296      __OBJ___  528
    x296      C71       -1
    x297      __OBJ___  244
    x297      C84       -1
    x297      C241      -1
    x298      __OBJ___  597
    x298      C215      -1
    x298      C249      -1
    x298      C351      -1
    x298      C390      -1
    x306      __OBJ___  803
    x306      C53       -1
    x306      C243      -1
    x306      C334      -1
    x306      C364      -1
    x308      __OBJ___  23
    x308      C252      -1
    x308      C307      -1
    x309      __OBJ___  807
    x309      C2        -1
    x309      C145      -1
    x309      C235      -1
    x309      C312      -1
    x313      __OBJ___  764
    x313      C45       -1
    x313      C390      -1
    x315      __OBJ___  519
    x315      C158      -1
    x315      C308      -1
    x315      C309      -1
    x318      __OBJ___  736
    x318      C208      -1
    x318      C353      -1
    x322      __OBJ___  88
    x322      C287      -1
    x322      C392      -1
    x323      __OBJ___  583
    x323      C52       -1
    x323      C186      -1
    x323      C362      -1
    x324      __OBJ___  302
    x324      C41       -1
    x324      C188      -1
    x324      C215      -1
    x324      C282      -1
    x325      __OBJ___  922
    x325      C67       -1
    x325      C71       -1
    x325      C155      -1
    x325      C288      -1
    x325      C298      -1
    x326      __OBJ___  516
    x326      C67       -1
    x326      C81       -1
    x326      C97       -1
    x326      C268      -1
    x327      __OBJ___  739
    x327      C209      -1
    x327      C302      -1
    x328      __OBJ___  407
    x328      C201      -1
    x328      C262      -1
    x328      C273      -1
    x330      __OBJ___  948
    x330      C53       -1
    x330      C208      -1
    x330      C229      -1
    x330      C248      -1
    x331      __OBJ___  6
    x331      C146      -1
    x331      C347      -1
    x333      __OBJ___  580
    x333      C84       -1
    x333      C201      -1
    x333      C213      -1
    x336      __OBJ___  386
    x336      C2        -1
    x336      C53       -1
    x336      C77       -1
    x336      C327      -1
    x340      __OBJ___  509
    x340      C260      -1
    x340      C293      -1
    x340      C308      -1
    x340      C387      -1
    x341      __OBJ___  916
    x341      C65       -1
    x341      C81       -1
    x341      C110      -1
    x341      C334      -1
    x342      __OBJ___  547
    x342      C23       -1
    x342      C150      -1
    x342      C228      -1
    x342      C390      -1
    x343      __OBJ___  590
    x343      C32       -1
    x343      C81       -1
    x343      C222      -1
    x344      __OBJ___  310
    x344      C14       -1
    x344      C93       -1
    x344      C128      -1
    x344      C344      -1
    x344      C353      -1
    x345      __OBJ___  1000
    x345      C20       -1
    x345      C72       -1
    x345      C96       -1
    x347      __OBJ___  696
    x347      C299      -1
    x347      C348      -1
    x347      C353      -1
    x349      __OBJ___  650
    x349      C89       -1
    x349      C229      -1
    x349      C336      -1
    x349      C376      -1
    x351      __OBJ___  851
    x351      C234      -1
    x351      C262      -1
    x351      C269      -1
    x351      C347      -1
    x352      __OBJ___  211
    x352      C247      -1
    x352      C262      -1
    x352      C336      -1
    x355      __OBJ___  992
    x355      C264      -1
    x355      C268      -1
    x355      C321      -1
    x355      C336      -1
    x355      C353      -1
    x361      __OBJ___  202
    x361      C211      -1
    x361      C242      -1
    x361      C332      -1
    x362      __OBJ___  758
    x362      C85       -1
    x362      C155      -1
    x362      C336      -1
    x362      C378      -1
    x363      __OBJ___  707
    x363      C66       -1
    x363      C191      -1
    x364      __OBJ___  993
    x364      C182      -1
    x364      C191      -1
    x364      C193      -1
    x364      C302      -1
    x365      __OBJ___  352
    x365      C77       -1
    x365      C179      -1
    x365      C277      -1
    x365      C318      -1
    x366      __OBJ___  454
    x366      C23       -1
    x366      C67       -1
    x366      C75       -1
    x366      C183      -1
    x367      __OBJ___  46
    x367      C2        -1
    x367      C99       -1
    x367      C307      -1
    x367      C339      -1
    x368      __OBJ___  737
    x368      C6        -1
    x368      C8        -1
    x368      C111      -1
    x369      __OBJ___  740
    x369      C158      -1
    x369      C286      -1
    x369      C302      -1
    x370      __OBJ___  41
    x370      C386      -1
    x373      __OBJ___  799
    x373      C97       -1
    x373      C279      -1
    x376      __OBJ___  657
    x376      C48       -1
    x376      C162      -1
    x376      C307      -1
    x377      __OBJ___  215
    x377      C19       -1
    x377      C52       -1
    x377      C62       -1
    x378      __OBJ___  541
    x378      C256      -1
    x378      C314      -1
    x378      C378      -1
    x379      __OBJ___  896
    x379      C59       -1
    x379      C140      -1
    x379      C268      -1
    x380      __OBJ___  180
    x380      C196      -1
    x380      C264      -1
    x381      __OBJ___  749
    x381      C26       -1
    x381      C88       -1
    x381      C294      -1
    x382      __OBJ___  414
    x382      C84       -1
    x382      C148      -1
    x382      C328      -1
    x385      __OBJ___  812
    x385      C164      -1
    x385      C310      -1
    x386      __OBJ___  981
    x386      C241      -1
    x386      C279      -1
    x386      C306      -1
    x386      C344      -1
    x389      __OBJ___  153
    x389      C209      -1
    x389      C332      -1
    x390      __OBJ___  215
    x390      C12       -1
    x390      C61       -1
    x390      C126      -1
    x390      C342      -1
    x393      __OBJ___  192
    x393      C136      -1
    x393      C273      -1
    x393      C293      -1
    x396      __OBJ___  926
    x396      C10       -1
    x396      C42       -1
    x396      C77       -1
    x396      C372      -1
    x398      __OBJ___  296
    x398      C306      -1
    x398      C366      -1
    MARKER    'MARKER'                 'INTEND'
RHS
    RHS       __OBJ___  -17346
    RHS       C0        -1
    RHS       C1        -1
    RHS       C2        -1
    RHS       C3        -1
    RHS       C6        -1
    RHS       C7        -1
    RHS       C8        -1
    RHS       C10       -1
    RHS       C12       -1
    RHS       C14       -1
    RHS       C15       -1
    RHS       C16       -1
    RHS       C18       -1
    RHS       C19       -1
    RHS       C20       -1
    RHS       C21       -1
    RHS       C22       -1
    RHS       C23       -1
    RHS       C24       -1
    RHS       C26       -1
    RHS       C27       -1
    RHS       C28       -1
    RHS       C31       -1
    RHS       C32       -1
    RHS       C38       -1
    RHS       C41       -1
    RHS       C42       -1
    RHS       C45       -1
    RHS       C46       -1
    RHS       C48       -1
    RHS       C50       -1
    RHS       C52       -1
    RHS       C53       -1
    RHS       C56       -1
    RHS       C59       -1
    RHS       C61       -1
    RHS       C62       -1
    RHS       C65       -1
    RHS       C66       -1
    RHS       C67       -1
    RHS       C68       -1
    RHS       C69       -1
    RHS       C71       -1
    RHS       C72       -1
    RHS       C75       -1
    RHS       C77       -1
    RHS       C78       -1
    RHS       C81       -1
    RHS       C84       -1
    RHS       C85       -1
    RHS       C87       -1
    RHS       C88       -1
    RHS       C89       -1
    RHS       C93       -1
    RHS       C96       -1
    RHS       C97       -1
    RHS       C99       -1
    RHS       C107      -1
    RHS       C110      -1
    RHS       C111      -1
    RHS       C113      -1
    RHS       C119      -1
    RHS       C121      -1
    RHS       C122      -1
    RHS       C123      -1
    RHS       C126      -1
    RHS       C128      -1
    RHS       C133      -1
    RHS       C136      -1
    RHS       C137      -1
    RHS       C138      -1
    RHS       C140      -1
    RHS       C141      -1
    RHS       C145      -1
    RHS       C146      -1
    RHS       C148      -1
    RHS       C150      -1
    RHS       C152      -1
    RHS       C155      -1
    RHS       C157      -1
    RHS       C158      -1
    RHS       C161      -1
    RHS       C162      -1
    RHS       C164      -1
    RHS       C165      -1
    RHS       C167      -1
    RHS       C168      -1
    RHS       C169      -1
    RHS       C174      -1
    RHS       C175      -1
    RHS       C179      -1
    RHS       C181      -1
    RHS       C182      -1
    RHS       C183      -1
    RHS       C185      -1
    RHS       C186      -1
    RHS       C188      -1
    RHS       C190      -1
    RHS       C191      -1
    RHS       C192      -1
    RHS       C193      -1
    RHS       C194      -1
    RHS       C196      -1
    RHS       C197      -1
    RHS       C201      -1
    RHS       C202      -1
    RHS       C208      -1
    RHS       C209      -1
    RHS       C211      -1
    RHS       C212      -1
    RHS       C213      -1
    RHS       C215      -1
    RHS       C218      -1
    RHS       C220      -1
    RHS       C221      -1
    RHS       C222      -1
    RHS       C226      -1
    RHS       C227      -1
    RHS       C228      -1
    RHS       C229      -1
    RHS       C231      -1
    RHS       C232      -1
    RHS       C234      -1
    RHS       C235      -1
    RHS       C241      -1
    RHS       C242      -1
    RHS       C243      -1
    RHS       C247      -1
    RHS       C248      -1
    RHS       C249      -1
    RHS       C252      -1
    RHS       C253      -1
    RHS       C256      -1
    RHS       C258      -1
    RHS       C260      -1
    RHS       C261      -1
    RHS       C262      -1
    RHS       C264      -1
    RHS       C266      -1
    RHS       C268      -1
    RHS       C269      -1
    RHS       C272      -1
    RHS       C273      -1
    RHS       C274      -1
    RHS       C277      -1
    RHS       C279      -1
    RHS       C282      -1
    RHS       C283      -1
    RHS       C286      -1
    RHS       C287      -1
    RHS       C288      -1
    RHS       C290      -1
    RHS       C293      -1
    RHS       C294      -1
    RHS       C298      -1
    RHS       C299      -1
    RHS       C302      -1
    RHS       C303      -1
    RHS       C304      -1
    RHS       C305      -1
    RHS       C306      -1
    RHS       C307      -1
    RHS       C308      -1
    RHS       C309      -1
    RHS       C310      -1
    RHS       C312      -1
    RHS       C314      -1
    RHS       C316      -1
    RHS       C317      -1
    RHS       C318      -1
    RHS       C319      -1
    RHS       C321      -1
    RHS       C327      -1
    RHS       C328      -1
    RHS       C329      -1
    RHS       C330      -1
    RHS       C332      -1
    RHS       C334      -1
    RHS       C336      -1
    RHS       C339      -1
    RHS       C342      -1
    RHS       C344      -1
    RHS       C345      -1
    RHS       C347      -1
    RHS       C348      -1
    RHS       C349      -1
    RHS       C351      -1
    RHS       C352      -1
    RHS       C353      -1
    RHS       C356      -1
    RHS       C362      -1
    RHS       C364      -1
    RHS       C366      -1
    RHS       C371      -1
    RHS       C372      -1
    RHS       C374      -1
    RHS       C375      -1
    RHS       C376      -1
    RHS       C378      -1
    RHS       C380      -1
    RHS       C381      -1
    RHS       C382      -1
    RHS       C386      -1
    RHS       C387      -1
    RHS       C390      -1
    RHS       C392      -1
    RHS       C393      -1
BOUNDS
 UP BOUND     x1        1
 UP BOUND     x3        1
 UP BOUND     x4        1
 UP BOUND     x5        1
 UP BOUND     x7        1
 UP BOUND     x8        1
 UP BOUND     x10       1
 UP BOUND     x13       1
 UP BOUND     x15       1
 UP BOUND     x18       1
 UP BOUND     x21       1
 UP BOUND     x23       1
 UP BOUND     x24       1
 UP BOUND     x25       1
 UP BOUND     x30       1
 UP BOUND     x31       1
 UP BOUND     x32       1
 UP BOUND     x36       1
 UP BOUND     x37       1
 UP BOUND     x38       1
 UP BOUND     x39       1
 UP BOUND     x43       1
 UP BOUND     x44       1
 UP BOUND     x47       1
 UP BOUND     x48       1
 UP BOUND     x49       1
 UP BOUND     x50       1
 UP BOUND     x52       1
 UP BOUND     x53       1
 UP BOUND     x54       1
 UP BOUND     x56       1
 UP BOUND     x58       1
 UP BOUND     x59       1
 UP BOUND     x61       1
 UP BOUND     x63       1
 UP BOUND     x68       1
 UP BOUND     x69       1
 UP BOUND     x72       1
 UP BOUND     x74       1
 UP BOUND     x75       1
 UP BOUND     x77       1
 UP BOUND     x78       1
 UP BOUND     x79       1
 UP BOUND     x86       1
 UP BOUND     x88       1
 UP BOUND     x89       1
 UP BOUND     x90       1
 UP BOUND     x94       1
 UP BOUND     x95       1
 UP BOUND     x98       1
 UP BOUND     x99       1
 UP BOUND     x103      1
 UP BOUND     x107      1
 UP BOUND     x108      1
 UP BOUND     x110      1
 UP BOUND     x114      1
 UP BOUND     x115      1
 UP BOUND     x116      1
 UP BOUND     x118      1
 UP BOUND     x119      1
 UP BOUND     x121      1
 UP BOUND     x122      1
 UP BOUND     x123      1
 UP BOUND     x124      1
 UP BOUND     x126      1
 UP BOUND     x127      1
 UP BOUND     x129      1
 UP BOUND     x130      1
 UP BOUND     x133      1
 UP BOUND     x134      1
 UP BOUND     x135      1
 UP BOUND     x136      1
 UP BOUND     x137      1
 UP BOUND     x139      1
 UP BOUND     x140      1
 UP BOUND     x142      1
 UP BOUND     x143      1
 UP BOUND     x145      1
 UP BOUND     x146      1
 UP BOUND     x147      1
 UP BOUND     x148      1
 UP BOUND     x149      1
 UP BOUND     x150      1
 UP BOUND     x153      1
 UP BOUND     x161      1
 UP BOUND     x163      1
 UP BOUND     x168      1
 UP BOUND     x170      1
 UP BOUND     x171      1
 UP BOUND     x172      1
 UP BOUND     x176      1
 UP BOUND     x177      1
 UP BOUND     x180      1
 UP BOUND     x181      1
 UP BOUND     x183      1
 UP BOUND     x184      1
 UP BOUND     x185      1
 UP BOUND     x187      1
 UP BOUND     x188      1
 UP BOUND     x194      1
 UP BOUND     x195      1
 UP BOUND     x196      1
 UP BOUND     x197      1
 UP BOUND     x200      1
 UP BOUND     x201      1
 UP BOUND     x204      1
 UP BOUND     x206      1
 UP BOUND     x207      1
 UP BOUND     x208      1
 UP BOUND     x209      1
 UP BOUND     x210      1
 UP BOUND     x214      1
 UP BOUND     x215      1
 UP BOUND     x217      1
 UP BOUND     x220      1
 UP BOUND     x221      1
 UP BOUND     x222      1
 UP BOUND     x223      1
 UP BOUND     x227      1
 UP BOUND     x228      1
 UP BOUND     x229      1
 UP BOUND     x230      1
 UP BOUND     x232      1
 UP BOUND     x233      1
 UP BOUND     x234      1
 UP BOUND     x235      1
 UP BOUND     x236      1
 UP BOUND     x239      1
 UP BOUND     x241      1
 UP BOUND     x246      1
 UP BOUND     x248      1
 UP BOUND     x250      1
 UP BOUND     x251      1
 UP BOUND     x253      1
 UP BOUND     x254      1
 UP BOUND     x255      1
 UP BOUND     x256      1
 UP BOUND     x257      1
 UP BOUND     x259      1
 UP BOUND     x260      1
 UP BOUND     x262      1
 UP BOUND     x268      1
 UP BOUND     x270      1
 UP BOUND     x272      1
 UP BOUND     x275      1
 UP BOUND     x276      1
 UP BOUND     x277      1
 UP BOUND     x278      1
 UP BOUND     x281      1
 UP BOUND     x282      1
 UP BOUND     x284      1
 UP BOUND     x286      1
 UP BOUND     x287      1
 UP BOUND     x288      1
 UP BOUND     x292      1
 UP BOUND     x293      1
 UP BOUND     x294      1
 UP BOUND     x295      1
 UP BOUND     x296      1
 UP BOUND     x297      1
 UP BOUND     x298      1
 UP BOUND     x306      1
 UP BOUND     x308      1
 UP BOUND     x309      1
 UP BOUND     x313      1
 UP BOUND     x315      1
 UP BOUND     x318      1
 UP BOUND     x322      1
 UP BOUND     x323      1
 UP BOUND     x324      1
 UP BOUND     x325      1
 UP BOUND     x326      1
 UP BOUND     x327      1
 UP BOUND     x328      1
 UP BOUND     x330      1
 UP BOUND     x331      1
 UP BOUND     x333      1
 UP BOUND     x336      1
 UP BOUND     x340      1
 UP BOUND     x341      1
 UP BOUND     x342      1
 UP BOUND     x343      1
 UP BOUND     x344      1
 UP BOUND     x345      1
 UP BOUND     x347      1
 UP BOUND     x349      1
 UP BOUND     x351      1
 UP BOUND     x352      1
 UP BOUND     x355      1
 UP BOUND     x361      1
 UP BOUND     x362      1
 UP BOUND     x363      1
 UP BOUND     x364      1
 UP BOUND     x365      1
 UP BOUND     x366      1
 UP BOUND     x367      1
 UP BOUND     x368      1
 UP BOUND     x369      1
 UP BOUND     x370      1
 UP BOUND     x373      1
 UP BOUND     x376      1
 UP BOUND     x377      1
 UP BOUND     x378      1
 UP BOUND     x379      1
 UP BOUND     x380      1
 UP BOUND     x381      1
 UP BOUND     x382      1
 UP BOUND     x385      1
 UP BOUND     x386      1
 UP BOUND     x389      1
 UP BOUND     x390      1
 UP BOUND     x393      1
 UP BOUND     x396      1
 UP BOUND     x398      1
ENDATA
